Quantum-Cryptanalysis/instances/samples/hf_n05/hf_n05_cnf08.cnf
c Parameters to produce the formula :
c key -1 2 3 -4 5 -6 7 -8 -9 10 11 -12 13 14 -15 -16 -17 18 19 20 21 -22 -23 24 -25 -26 -27 28 29 -30 31 32
c plaintext 1 -2 -3 4 5 6 -7 8 9 -10 -11 -12 13 -14 -15 -16
c ciphertext -1 2 -3 -4 -5 6 -7 -8 -9 -10 11 12 13 -14 -15 -16
c 
p cnf 5 19
5 0
3 4 1 0
-4 1 -3 2 0
-4 3 2 0
-4 1 -2 0
-4 3 1 0
-1 -2 -3 0
-4 -1 -3 0
-4 -2 -3 0
3 4 2 0
-4 3 -2 0
3 1 -2 0
4 -3 2 0
4 -1 -2 0
-4 -1 2 0
3 4 -2 0
4 1 2 0
4 -1 -3 0
3 1 2 0